NAME : P-n16-k8
COMMENT : (Augerat et al, No of trucks: 8, Optimal value: 450)
TYPE : CVRP
DIMENSION : 16
EDGE_WEIGHT_TYPE : EUC_2D
CAPACITY : 35
NODE_COORD_SECTION
1 30 40
2 37 52
3 49 49
4 52 64
5 31 62
DEMAND_SECTION
1 0
2 19
3 30
4 16
5 23
DEPOT_SECTION
 1
 -1
EOF
